TYPE : Vertex Cover
DIMENSION: 22
EDGE_DATA_SECTION:
0 7
0 11
1 4
1 5
1 10
1 11
1 14
1 18
2 5
2 14
2 15
2 17
2 18
3 6
3 16
4 7
4 10
5 7
5 14
6 9
8 20
8 21
9 10
9 16
10 20
10 21
11 14
12 16
12 21
13 15
13 17
16 20
17 20
19 21
-1
VERTEX_DEGREE:
2.0 6.0 5.0 2.0 3.0 4.0 2.0 3.0 2.0 3.0 5.0 3.0 2.0 2.0 4.0 2.0 4.0 3.0 2.0 1.0 4.0 4.0
VERTEX_COVER:
1 2 6 7 10 11 13 14 16 20 21
EOF
